Taille bin
100
Objets
90, 10, 90, 10, 90, 10, 90, 10, 90, 10, 90, 10, 90, 10, 90, 10, 90, 10, 90, 10, 90, 10, 90, 10, 90, 10, 90, 10, 90, 10, 90, 10, 90, 10, 90, 10, 90, 10, 90, 10, 90, 10, 90, 10, 90, 10, 90, 10, 90, 10, 90, 10, 90, 10, 90, 10, 90, 10, 90, 10, 90, 10, 90, 10, 90, 10, 90, 10, 90, 10, 90, 10, 90, 10, 90, 10, 90, 10, 90, 10, 90, 10, 90, 10, 90, 10, 90, 10, 90, 10, 90, 10, 90, 10, 90, 10, 90, 10, 90, 10.